RAW/D/fspd/CON8-2.vrpspd_seed-1.out
712.8855	16.86	27.35
