RAW/D/fspd/CON8-2.vrpspd_seed-1.sol
Route #1: 9 11 5 40 21
Route #2: 29 44 14 18
Route #3: 39 10 45 20 26
Route #4: 13 16 4 32 50
Route #5: 35 42 46 22 37 6 8 48
Route #6: 15 3 43 31 23
Route #7: 25 27 38 19 17 1
Route #8: 30 33 41 47 34
Route #9: 49 7 12 36 2 28 24
Cost 7128855.000000